p cnf 21 11
e 1 0
a 2 3 0
e 4 0
a 5 0
e 6 0
a 7 0
e 8 9 10 0
a 11 12 0
e 13 0
a 14 0
e 15 0
a 16 17 18 0
e 19 20 21 0
-19 12 -16 15 0
16 13 1 6 -15 0
14 18 -4 9 -20 0
-10 -3 15 -7 -5 0
15 9 -18 1 -17 0
15 -21 9 -17 -16 0
-21 7 -5 4 -1 0
5 15 21 0
21 -2 -8 16 0
6 -17 12 -14 -1 0
-7 -20 -3 0
